c " random instance " 
p edges 200 4130
e 1 3
e 1 15
e 1 17
e 1 18
e 1 20
e 1 26
e 1 27
e 1 28
e 1 29
e 1 36
e 1 40
e 1 42
e 1 50
e 1 57
e 1 59
e 1 70
e 1 76
e 1 77
e 1 79
e 1 82
e 1 86
e 1 93
e 1 103
e 1 106
e 1 110
e 1 116
e 1 120
e 1 126
e 1 128
e 1 129
e 1 135
e 1 137
e 1 140
e 1 147
e 1 161
e 1 162
e 1 175
e 1 181
e 1 182
e 1 184
e 1 196
e 2 5
e 2 12
e 2 13
e 2 22
e 2 23
e 2 29
e 2 32
e 2 33
e 2 35
e 2 36
e 2 37
e 2 39
e 2 40
e 2 42
e 2 63
e 2 73
e 2 75
e 2 82
e 2 84
e 2 85
e 2 87
e 2 88
e 2 89
e 2 93
e 2 94
e 2 98
e 2 100
e 2 103
e 2 113
e 2 114
e 2 115
e 2 116
e 2 121
e 2 123
e 2 124
e 2 140
e 2 141
e 2 143
e 2 145
e 2 149
e 2 166
e 2 174
e 2 175
e 2 180
e 2 184
e 2 193
e 2 197
e 2 198
e 2 200
e 3 6
e 3 14
e 3 16
e 3 23
e 3 25
e 3 32
e 3 40
e 3 42
e 3 56
e 3 60
e 3 62
e 3 65
e 3 68
e 3 72
e 3 73
e 3 92
e 3 95
e 3 96
e 3 97
e 3 102
e 3 130
e 3 135
e 3 140
e 3 150
e 3 153
e 3 160
e 3 162
e 3 173
e 3 174
e 3 182
e 3 191
e 4 12
e 4 17
e 4 20
e 4 22
e 4 29
e 4 32
e 4 34
e 4 36
e 4 42
e 4 44
e 4 53
e 4 54
e 4 55
e 4 58
e 4 61
e 4 68
e 4 80
e 4 85
e 4 86
e 4 92
e 4 95
e 4 96
e 4 99
e 4 103
e 4 106
e 4 108
e 4 117
e 4 134
e 4 136
e 4 138
e 4 150
e 4 152
e 4 153
e 4 154
e 4 157
e 4 164
e 4 171
e 4 177
e 4 181
e 4 194
e 5 10
e 5 16
e 5 17
e 5 18
e 5 35
e 5 37
e 5 40
e 5 53
e 5 56
e 5 60
e 5 66
e 5 72
e 5 75
e 5 84
e 5 86
e 5 94
e 5 95
e 5 98
e 5 102
e 5 103
e 5 107
e 5 108
e 5 117
e 5 119
e 5 123
e 5 133
e 5 134
e 5 138
e 5 141
e 5 142
e 5 143
e 5 146
e 5 149
e 5 152
e 5 155
e 5 156
e 5 157
e 5 161
e 5 165
e 5 168
e 5 171
e 5 175
e 5 183
e 5 185
e 5 186
e 5 191
e 5 193
e 5 195
e 5 199
e 6 9
e 6 11
e 6 21
e 6 31
e 6 39
e 6 40
e 6 41
e 6 42
e 6 44
e 6 47
e 6 52
e 6 59
e 6 80
e 6 84
e 6 88
e 6 91
e 6 95
e 6 96
e 6 101
e 6 111
e 6 113
e 6 115
e 6 117
e 6 124
e 6 129
e 6 133
e 6 136
e 6 137
e 6 143
e 6 148
e 6 150
e 6 155
e 6 166
e 6 173
e 6 174
e 6 175
e 6 178
e 6 186
e 7 12
e 7 14
e 7 21
e 7 22
e 7 24
e 7 26
e 7 28
e 7 34
e 7 35
e 7 36
e 7 37
e 7 53
e 7 54
e 7 55
e 7 58
e 7 61
e 7 67
e 7 69
e 7 71
e 7 73
e 7 74
e 7 75
e 7 76
e 7 81
e 7 85
e 7 86
e 7 88
e 7 91
e 7 95
e 7 102
e 7 105
e 7 108
e 7 111
e 7 112
e 7 137
e 7 153
e 7 154
e 7 159
e 7 164
e 7 166
e 7 173
e 7 181
e 7 190
e 7 192
e 7 195
e 7 197
e 8 11
e 8 13
e 8 21
e 8 26
e 8 35
e 8 36
e 8 38
e 8 47
e 8 64
e 8 67
e 8 68
e 8 77
e 8 89
e 8 102
e 8 103
e 8 106
e 8 109
e 8 110
e 8 111
e 8 112
e 8 129
e 8 134
e 8 136
e 8 144
e 8 153
e 8 154
e 8 155
e 8 161
e 8 170
e 8 182
e 8 190
e 8 193
e 8 197
e 8 200
e 9 14
e 9 16
e 9 19
e 9 22
e 9 37
e 9 38
e 9 42
e 9 46
e 9 60
e 9 65
e 9 67
e 9 71
e 9 73
e 9 74
e 9 75
e 9 77
e 9 82
e 9 83
e 9 96
e 9 97
e 9 100
e 9 103
e 9 121
e 9 125
e 9 135
e 9 146
e 9 153
e 9 155
e 9 161
e 9 163
e 9 174
e 9 175
e 9 176
e 9 179
e 9 181
e 9 183
e 9 188
e 9 189
e 9 190
e 9 193
e 9 194
e 9 195
e 9 197
e 9 198
e 9 200
e 10 12
e 10 17
e 10 22
e 10 33
e 10 39
e 10 43
e 10 45
e 10 48
e 10 52
e 10 54
e 10 55
e 10 58
e 10 62
e 10 67
e 10 69
e 10 72
e 10 82
e 10 83
e 10 104
e 10 106
e 10 109
e 10 114
e 10 116
e 10 117
e 10 129
e 10 134
e 10 143
e 10 146
e 10 147
e 10 148
e 10 155
e 10 162
e 10 177
e 10 180
e 10 182
e 10 185
e 10 189
e 10 197
e 11 12
e 11 15
e 11 17
e 11 39
e 11 44
e 11 48
e 11 55
e 11 56
e 11 57
e 11 64
e 11 70
e 11 75
e 11 84
e 11 95
e 11 97
e 11 109
e 11 112
e 11 116
e 11 117
e 11 118
e 11 120
e 11 130
e 11 131
e 11 136
e 11 139
e 11 154
e 11 164
e 11 180
e 11 182
e 11 189
e 11 198
e 12 13
e 12 21
e 12 24
e 12 42
e 12 50
e 12 57
e 12 62
e 12 63
e 12 65
e 12 66
e 12 71
e 12 73
e 12 74
e 12 75
e 12 88
e 12 90
e 12 101
e 12 109
e 12 116
e 12 122
e 12 126
e 12 142
e 12 143
e 12 149
e 12 151
e 12 161
e 12 162
e 12 163
e 12 181
e 12 186
e 12 193
e 12 196
e 13 30
e 13 34
e 13 38
e 13 44
e 13 46
e 13 52
e 13 56
e 13 58
e 13 60
e 13 62
e 13 64
e 13 65
e 13 68
e 13 71
e 13 85
e 13 88
e 13 91
e 13 95
e 13 96
e 13 106
e 13 108
e 13 109
e 13 111
e 13 113
e 13 114
e 13 124
e 13 125
e 13 126
e 13 133
e 13 135
e 13 136
e 13 137
e 13 138
e 13 140
e 13 141
e 13 142
e 13 156
e 13 157
e 13 168
e 13 171
e 13 173
e 13 175
e 13 176
e 13 177
e 13 179
e 13 187
e 13 188
e 13 189
e 13 190
e 13 198
e 13 200
e 14 16
e 14 18
e 14 19
e 14 26
e 14 27
e 14 29
e 14 30
e 14 34
e 14 58
e 14 64
e 14 65
e 14 70
e 14 82
e 14 86
e 14 88
e 14 93
e 14 99
e 14 101
e 14 106
e 14 113
e 14 127
e 14 133
e 14 140
e 14 141
e 14 146
e 14 147
e 14 149
e 14 153
e 14 157
e 14 160
e 14 162
e 14 163
e 14 170
e 14 181
e 14 187
e 14 195
e 15 18
e 15 26
e 15 30
e 15 38
e 15 46
e 15 50
e 15 53
e 15 57
e 15 64
e 15 68
e 15 69
e 15 72
e 15 74
e 15 90
e 15 100
e 15 101
e 15 108
e 15 117
e 15 118
e 15 119
e 15 125
e 15 131
e 15 133
e 15 134
e 15 135
e 15 137
e 15 155
e 15 164
e 15 173
e 15 177
e 15 180
e 15 189
e 15 194
e 15 195
e 15 196
e 16 17
e 16 22
e 16 30
e 16 47
e 16 53
e 16 56
e 16 62
e 16 67
e 16 81
e 16 87
e 16 89
e 16 95
e 16 103
e 16 109
e 16 113
e 16 122
e 16 127
e 16 160
e 16 169
e 16 178
e 16 180
e 16 183
e 16 191
e 16 192
e 16 193
e 16 195
e 16 200
e 17 18
e 17 29
e 17 40
e 17 42
e 17 46
e 17 70
e 17 74
e 17 78
e 17 81
e 17 83
e 17 84
e 17 101
e 17 105
e 17 110
e 17 113
e 17 119
e 17 124
e 17 129
e 17 131
e 17 132
e 17 144
e 17 152
e 17 153
e 17 154
e 17 155
e 17 162
e 17 174
e 17 179
e 17 183
e 17 184
e 17 187
e 17 193
e 17 195
e 17 196
e 18 20
e 18 21
e 18 28
e 18 35
e 18 39
e 18 69
e 18 70
e 18 77
e 18 84
e 18 85
e 18 87
e 18 94
e 18 108
e 18 111
e 18 115
e 18 130
e 18 138
e 18 144
e 18 145
e 18 151
e 18 153
e 18 154
e 18 155
e 18 159
e 18 160
e 18 168
e 18 170
e 18 177
e 18 180
e 18 182
e 18 183
e 18 184
e 18 191
e 18 196
e 18 199
e 19 27
e 19 30
e 19 35
e 19 46
e 19 53
e 19 61
e 19 64
e 19 67
e 19 72
e 19 80
e 19 83
e 19 84
e 19 87
e 19 95
e 19 103
e 19 106
e 19 108
e 19 109
e 19 114
e 19 120
e 19 124
e 19 128
e 19 131
e 19 134
e 19 136
e 19 139
e 19 142
e 19 163
e 19 164
e 19 165
e 19 170
e 19 181
e 19 184
e 19 185
e 19 188
e 19 189
e 19 190
e 19 192
e 19 194
e 19 197
e 20 23
e 20 24
e 20 25
e 20 26
e 20 27
e 20 29
e 20 31
e 20 32
e 20 49
e 20 54
e 20 58
e 20 59
e 20 64
e 20 67
e 20 68
e 20 69
e 20 70
e 20 72
e 20 74
e 20 81
e 20 88
e 20 94
e 20 104
e 20 111
e 20 131
e 20 135
e 20 136
e 20 137
e 20 140
e 20 144
e 20 151
e 20 157
e 20 166
e 20 170
e 20 179
e 21 22
e 21 26
e 21 29
e 21 40
e 21 41
e 21 47
e 21 64
e 21 67
e 21 68
e 21 69
e 21 77
e 21 83
e 21 85
e 21 89
e 21 97
e 21 101
e 21 102
e 21 115
e 21 131
e 21 134
e 21 136
e 21 141
e 21 143
e 21 154
e 21 159
e 21 162
e 21 163
e 21 166
e 21 167
e 21 168
e 21 169
e 21 174
e 21 175
e 21 178
e 21 181
e 21 184
e 21 187
e 21 188
e 22 23
e 22 30
e 22 40
e 22 44
e 22 56
e 22 57
e 22 58
e 22 67
e 22 71
e 22 72
e 22 75
e 22 82
e 22 83
e 22 84
e 22 87
e 22 88
e 22 96
e 22 99
e 22 105
e 22 116
e 22 118
e 22 121
e 22 122
e 22 125
e 22 138
e 22 146
e 22 147
e 22 149
e 22 151
e 22 164
e 22 166
e 22 168
e 22 169
e 22 173
e 22 174
e 22 176
e 22 180
e 22 182
e 22 198
e 22 200
e 23 35
e 23 41
e 23 43
e 23 44
e 23 46
e 23 54
e 23 59
e 23 64
e 23 65
e 23 66
e 23 67
e 23 68
e 23 76
e 23 80
e 23 87
e 23 92
e 23 99
e 23 106
e 23 114
e 23 123
e 23 124
e 23 128
e 23 146
e 23 147
e 23 152
e 23 155
e 23 160
e 23 170
e 23 171
e 23 183
e 23 184
e 23 185
e 23 186
e 23 187
e 23 192
e 23 197
e 23 200
e 24 28
e 24 31
e 24 35
e 24 38
e 24 40
e 24 44
e 24 45
e 24 46
e 24 58
e 24 64
e 24 67
e 24 70
e 24 85
e 24 87
e 24 88
e 24 89
e 24 90
e 24 94
e 24 97
e 24 99
e 24 103
e 24 111
e 24 114
e 24 116
e 24 117
e 24 118
e 24 119
e 24 121
e 24 122
e 24 128
e 24 131
e 24 139
e 24 142
e 24 146
e 24 168
e 24 170
e 24 181
e 24 185
e 24 191
e 24 195
e 24 199
e 25 29
e 25 31
e 25 37
e 25 40
e 25 46
e 25 49
e 25 51
e 25 52
e 25 54
e 25 65
e 25 70
e 25 71
e 25 81
e 25 92
e 25 97
e 25 102
e 25 104
e 25 111
e 25 122
e 25 125
e 25 126
e 25 127
e 25 131
e 25 132
e 25 152
e 25 159
e 25 160
e 25 166
e 25 168
e 25 179
e 25 186
e 25 187
e 25 191
e 25 192
e 25 195
e 25 197
e 25 200
e 26 31
e 26 35
e 26 57
e 26 60
e 26 62
e 26 64
e 26 67
e 26 68
e 26 80
e 26 90
e 26 96
e 26 97
e 26 99
e 26 103
e 26 106
e 26 107
e 26 109
e 26 113
e 26 114
e 26 117
e 26 118
e 26 119
e 26 133
e 26 143
e 26 150
e 26 154
e 26 162
e 26 165
e 26 169
e 26 170
e 26 180
e 26 182
e 26 187
e 26 188
e 26 192
e 26 193
e 26 194
e 26 195
e 26 197
e 27 30
e 27 35
e 27 41
e 27 50
e 27 52
e 27 56
e 27 59
e 27 62
e 27 66
e 27 69
e 27 77
e 27 89
e 27 94
e 27 99
e 27 111
e 27 113
e 27 115
e 27 131
e 27 133
e 27 134
e 27 142
e 27 144
e 27 145
e 27 146
e 27 149
e 27 151
e 27 159
e 27 162
e 27 164
e 27 169
e 27 173
e 27 175
e 27 176
e 27 177
e 27 182
e 27 187
e 27 193
e 27 197
e 27 198
e 28 31
e 28 40
e 28 41
e 28 47
e 28 65
e 28 69
e 28 75
e 28 76
e 28 81
e 28 85
e 28 92
e 28 102
e 28 104
e 28 105
e 28 113
e 28 115
e 28 119
e 28 120
e 28 134
e 28 139
e 28 155
e 28 158
e 28 163
e 28 167
e 28 168
e 28 174
e 28 179
e 28 180
e 28 182
e 28 189
e 28 190
e 28 191
e 28 192
e 28 195
e 28 198
e 28 200
e 29 30
e 29 33
e 29 35
e 29 37
e 29 44
e 29 49
e 29 52
e 29 55
e 29 64
e 29 75
e 29 78
e 29 86
e 29 90
e 29 93
e 29 97
e 29 98
e 29 100
e 29 109
e 29 110
e 29 118
e 29 120
e 29 128
e 29 133
e 29 136
e 29 138
e 29 142
e 29 152
e 29 162
e 29 172
e 29 174
e 29 176
e 29 179
e 29 182
e 29 190
e 29 200
e 30 31
e 30 34
e 30 45
e 30 48
e 30 54
e 30 55
e 30 56
e 30 57
e 30 59
e 30 63
e 30 65
e 30 66
e 30 68
e 30 74
e 30 75
e 30 76
e 30 81
e 30 84
e 30 92
e 30 105
e 30 109
e 30 112
e 30 125
e 30 126
e 30 129
e 30 132
e 30 138
e 30 152
e 30 156
e 30 160
e 30 164
e 30 168
e 30 171
e 30 179
e 30 181
e 30 184
e 30 185
e 30 197
e 30 198
e 30 200
e 31 33
e 31 47
e 31 57
e 31 61
e 31 71
e 31 72
e 31 79
e 31 80
e 31 81
e 31 86
e 31 101
e 31 104
e 31 111
e 31 120
e 31 124
e 31 132
e 31 134
e 31 139
e 31 146
e 31 161
e 31 165
e 31 169
e 31 171
e 31 172
e 31 176
e 31 183
e 31 200
e 32 34
e 32 35
e 32 39
e 32 56
e 32 61
e 32 65
e 32 66
e 32 67
e 32 80
e 32 83
e 32 87
e 32 92
e 32 94
e 32 98
e 32 104
e 32 107
e 32 116
e 32 120
e 32 125
e 32 130
e 32 132
e 32 134
e 32 145
e 32 153
e 32 156
e 32 161
e 32 162
e 32 164
e 32 169
e 32 171
e 32 172
e 32 175
e 32 178
e 32 181
e 32 187
e 32 199
e 33 35
e 33 36
e 33 42
e 33 55
e 33 56
e 33 65
e 33 68
e 33 76
e 33 77
e 33 81
e 33 83
e 33 87
e 33 96
e 33 97
e 33 111
e 33 117
e 33 122
e 33 123
e 33 127
e 33 135
e 33 138
e 33 143
e 33 165
e 33 166
e 33 169
e 33 170
e 33 180
e 33 183
e 33 186
e 33 187
e 33 190
e 33 191
e 33 196
e 34 36
e 34 44
e 34 45
e 34 50
e 34 51
e 34 56
e 34 57
e 34 59
e 34 60
e 34 69
e 34 81
e 34 84
e 34 99
e 34 106
e 34 110
e 34 119
e 34 123
e 34 124
e 34 125
e 34 137
e 34 139
e 34 154
e 34 155
e 34 159
e 34 162
e 34 165
e 34 172
e 34 180
e 34 181
e 34 185
e 34 199
e 35 63
e 35 68
e 35 70
e 35 71
e 35 72
e 35 73
e 35 92
e 35 114
e 35 122
e 35 142
e 35 150
e 35 155
e 35 173
e 35 177
e 35 179
e 35 180
e 35 181
e 35 184
e 35 194
e 35 197
e 36 42
e 36 47
e 36 50
e 36 52
e 36 58
e 36 64
e 36 69
e 36 80
e 36 96
e 36 105
e 36 109
e 36 110
e 36 111
e 36 112
e 36 120
e 36 123
e 36 133
e 36 135
e 36 136
e 36 142
e 36 143
e 36 145
e 36 147
e 36 150
e 36 151
e 36 167
e 36 168
e 36 170
e 36 171
e 36 172
e 36 174
e 36 177
e 36 179
e 36 180
e 36 182
e 36 187
e 36 191
e 36 195
e 37 60
e 37 63
e 37 67
e 37 76
e 37 77
e 37 78
e 37 83
e 37 86
e 37 87
e 37 96
e 37 102
e 37 106
e 37 108
e 37 117
e 37 121
e 37 122
e 37 126
e 37 129
e 37 142
e 37 146
e 37 156
e 37 158
e 37 165
e 37 170
e 37 174
e 37 179
e 37 181
e 37 183
e 37 187
e 37 195
e 37 196
e 38 49
e 38 61
e 38 65
e 38 70
e 38 80
e 38 81
e 38 85
e 38 90
e 38 93
e 38 94
e 38 96
e 38 98
e 38 99
e 38 105
e 38 106
e 38 109
e 38 118
e 38 126
e 38 127
e 38 130
e 38 131
e 38 133
e 38 138
e 38 147
e 38 149
e 38 151
e 38 159
e 38 160
e 38 162
e 38 166
e 38 168
e 38 171
e 38 175
e 38 188
e 38 190
e 38 192
e 38 194
e 38 200
e 39 43
e 39 46
e 39 47
e 39 51
e 39 53
e 39 60
e 39 63
e 39 70
e 39 79
e 39 81
e 39 87
e 39 90
e 39 91
e 39 106
e 39 109
e 39 110
e 39 112
e 39 116
e 39 120
e 39 122
e 39 126
e 39 128
e 39 133
e 39 141
e 39 142
e 39 147
e 39 149
e 39 153
e 39 155
e 39 156
e 39 157
e 39 161
e 39 184
e 39 187
e 39 192
e 39 197
e 40 41
e 40 51
e 40 52
e 40 68
e 40 76
e 40 84
e 40 97
e 40 102
e 40 104
e 40 105
e 40 106
e 40 110
e 40 116
e 40 117
e 40 118
e 40 123
e 40 129
e 40 131
e 40 144
e 40 146
e 40 149
e 40 151
e 40 152
e 40 154
e 40 155
e 40 166
e 40 179
e 40 180
e 40 182
e 40 190
e 40 197
e 41 53
e 41 54
e 41 58
e 41 61
e 41 67
e 41 69
e 41 76
e 41 86
e 41 89
e 41 107
e 41 123
e 41 128
e 41 136
e 41 139
e 41 145
e 41 148
e 41 150
e 41 158
e 41 160
e 41 162
e 41 165
e 41 167
e 41 174
e 41 179
e 41 187
e 41 188
e 41 189
e 41 191
e 41 195
e 42 45
e 42 62
e 42 75
e 42 76
e 42 78
e 42 85
e 42 93
e 42 99
e 42 100
e 42 101
e 42 102
e 42 103
e 42 110
e 42 115
e 42 126
e 42 130
e 42 135
e 42 136
e 42 137
e 42 140
e 42 145
e 42 149
e 42 152
e 42 155
e 42 163
e 42 167
e 42 169
e 42 171
e 42 174
e 42 187
e 42 190
e 42 194
e 43 44
e 43 49
e 43 51
e 43 56
e 43 57
e 43 63
e 43 65
e 43 70
e 43 71
e 43 77
e 43 78
e 43 81
e 43 91
e 43 105
e 43 106
e 43 109
e 43 110
e 43 117
e 43 132
e 43 133
e 43 135
e 43 136
e 43 143
e 43 144
e 43 145
e 43 162
e 43 169
e 43 173
e 43 174
e 43 176
e 43 180
e 43 181
e 43 182
e 43 184
e 43 190
e 43 192
e 43 193
e 43 194
e 43 197
e 44 55
e 44 68
e 44 76
e 44 77
e 44 78
e 44 81
e 44 84
e 44 87
e 44 90
e 44 102
e 44 104
e 44 108
e 44 109
e 44 110
e 44 115
e 44 122
e 44 126
e 44 132
e 44 137
e 44 138
e 44 140
e 44 143
e 44 148
e 44 154
e 44 155
e 44 161
e 44 166
e 44 170
e 44 175
e 44 177
e 44 182
e 44 186
e 45 46
e 45 48
e 45 50
e 45 65
e 45 68
e 45 72
e 45 76
e 45 87
e 45 96
e 45 98
e 45 103
e 45 106
e 45 107
e 45 120
e 45 122
e 45 124
e 45 126
e 45 129
e 45 133
e 45 135
e 45 146
e 45 147
e 45 152
e 45 155
e 45 158
e 45 160
e 45 166
e 45 176
e 45 178
e 45 181
e 45 190
e 45 193
e 45 195
e 45 200
e 46 53
e 46 55
e 46 57
e 46 65
e 46 73
e 46 76
e 46 81
e 46 87
e 46 95
e 46 113
e 46 120
e 46 130
e 46 134
e 46 140
e 46 144
e 46 149
e 46 156
e 46 162
e 46 165
e 46 179
e 46 183
e 46 192
e 47 55
e 47 65
e 47 70
e 47 74
e 47 79
e 47 86
e 47 87
e 47 90
e 47 95
e 47 103
e 47 106
e 47 107
e 47 108
e 47 117
e 47 119
e 47 125
e 47 127
e 47 132
e 47 151
e 47 155
e 47 156
e 47 160
e 47 167
e 47 171
e 47 173
e 47 174
e 47 176
e 47 181
e 47 182
e 47 183
e 47 184
e 47 186
e 47 188
e 47 192
e 47 200
e 48 49
e 48 51
e 48 60
e 48 62
e 48 67
e 48 72
e 48 89
e 48 92
e 48 95
e 48 103
e 48 114
e 48 121
e 48 131
e 48 132
e 48 133
e 48 145
e 48 154
e 48 157
e 48 163
e 48 166
e 48 171
e 48 175
e 48 179
e 48 184
e 48 185
e 48 189
e 48 192
e 48 198
e 48 200
e 49 58
e 49 59
e 49 60
e 49 63
e 49 68
e 49 84
e 49 85
e 49 91
e 49 93
e 49 94
e 49 99
e 49 100
e 49 102
e 49 103
e 49 105
e 49 108
e 49 109
e 49 110
e 49 117
e 49 123
e 49 131
e 49 132
e 49 133
e 49 140
e 49 141
e 49 149
e 49 150
e 49 155
e 49 157
e 49 165
e 49 174
e 49 179
e 49 180
e 49 188
e 49 189
e 49 191
e 50 51
e 50 52
e 50 63
e 50 66
e 50 77
e 50 83
e 50 93
e 50 95
e 50 108
e 50 109
e 50 112
e 50 117
e 50 120
e 50 121
e 50 126
e 50 128
e 50 135
e 50 138
e 50 147
e 50 158
e 50 161
e 50 167
e 50 168
e 50 170
e 50 174
e 50 177
e 50 179
e 50 181
e 50 185
e 50 186
e 50 193
e 50 194
e 50 200
e 51 52
e 51 56
e 51 57
e 51 59
e 51 62
e 51 64
e 51 69
e 51 75
e 51 77
e 51 97
e 51 99
e 51 101
e 51 112
e 51 117
e 51 122
e 51 123
e 51 124
e 51 129
e 51 131
e 51 134
e 51 137
e 51 159
e 51 165
e 51 169
e 51 178
e 51 191
e 51 193
e 51 195
e 51 196
e 51 197
e 52 54
e 52 57
e 52 65
e 52 66
e 52 68
e 52 74
e 52 79
e 52 81
e 52 84
e 52 91
e 52 96
e 52 100
e 52 102
e 52 105
e 52 110
e 52 114
e 52 116
e 52 118
e 52 119
e 52 124
e 52 131
e 52 135
e 52 136
e 52 144
e 52 158
e 52 161
e 52 162
e 52 167
e 52 171
e 52 176
e 52 177
e 52 183
e 52 188
e 52 193
e 52 198
e 53 61
e 53 64
e 53 74
e 53 75
e 53 87
e 53 88
e 53 93
e 53 96
e 53 105
e 53 109
e 53 133
e 53 134
e 53 138
e 53 143
e 53 145
e 53 146
e 53 147
e 53 150
e 53 154
e 53 159
e 53 163
e 53 164
e 53 170
e 53 171
e 53 172
e 53 174
e 53 177
e 53 181
e 53 182
e 53 188
e 53 191
e 53 197
e 54 63
e 54 71
e 54 75
e 54 76
e 54 78
e 54 86
e 54 91
e 54 92
e 54 98
e 54 100
e 54 106
e 54 108
e 54 112
e 54 115
e 54 116
e 54 118
e 54 124
e 54 127
e 54 133
e 54 150
e 54 159
e 54 160
e 54 164
e 54 171
e 54 172
e 54 176
e 54 177
e 54 195
e 55 63
e 55 66
e 55 69
e 55 74
e 55 76
e 55 79
e 55 89
e 55 91
e 55 96
e 55 110
e 55 112
e 55 125
e 55 132
e 55 133
e 55 134
e 55 136
e 55 149
e 55 153
e 55 170
e 55 175
e 55 177
e 55 179
e 55 187
e 55 191
e 55 192
e 55 198
e 56 66
e 56 73
e 56 74
e 56 76
e 56 88
e 56 91
e 56 95
e 56 97
e 56 99
e 56 106
e 56 109
e 56 117
e 56 122
e 56 134
e 56 137
e 56 144
e 56 145
e 56 146
e 56 149
e 56 156
e 56 164
e 56 165
e 56 171
e 56 182
e 56 188
e 56 190
e 56 194
e 56 198
e 57 66
e 57 73
e 57 77
e 57 83
e 57 87
e 57 88
e 57 90
e 57 95
e 57 96
e 57 97
e 57 101
e 57 108
e 57 111
e 57 115
e 57 116
e 57 118
e 57 120
e 57 121
e 57 123
e 57 127
e 57 129
e 57 137
e 57 139
e 57 145
e 57 153
e 57 156
e 57 159
e 57 170
e 57 183
e 57 186
e 57 199
e 58 78
e 58 80
e 58 81
e 58 82
e 58 86
e 58 89
e 58 91
e 58 93
e 58 96
e 58 106
e 58 109
e 58 110
e 58 113
e 58 117
e 58 120
e 58 121
e 58 124
e 58 129
e 58 134
e 58 139
e 58 140
e 58 141
e 58 145
e 58 146
e 58 147
e 58 151
e 58 159
e 58 164
e 58 183
e 58 186
e 58 187
e 58 193
e 58 195
e 58 196
e 59 60
e 59 71
e 59 75
e 59 80
e 59 83
e 59 84
e 59 88
e 59 89
e 59 92
e 59 94
e 59 95
e 59 99
e 59 108
e 59 113
e 59 118
e 59 127
e 59 136
e 59 141
e 59 150
e 59 155
e 59 159
e 59 160
e 59 171
e 59 189
e 59 194
e 59 195
e 59 200
e 60 64
e 60 66
e 60 71
e 60 75
e 60 79
e 60 95
e 60 100
e 60 101
e 60 102
e 60 105
e 60 111
e 60 113
e 60 115
e 60 118
e 60 119
e 60 121
e 60 126
e 60 131
e 60 133
e 60 135
e 60 142
e 60 145
e 60 148
e 60 149
e 60 151
e 60 152
e 60 153
e 60 154
e 60 167
e 60 172
e 60 174
e 60 175
e 60 179
e 60 180
e 60 182
e 60 185
e 60 189
e 60 197
e 60 200
e 61 63
e 61 64
e 61 67
e 61 70
e 61 74
e 61 77
e 61 81
e 61 82
e 61 86
e 61 87
e 61 89
e 61 91
e 61 95
e 61 104
e 61 111
e 61 112
e 61 116
e 61 119
e 61 121
e 61 123
e 61 124
e 61 128
e 61 135
e 61 145
e 61 158
e 61 161
e 61 167
e 61 172
e 61 174
e 61 175
e 61 179
e 61 187
e 61 188
e 61 190
e 61 196
e 62 69
e 62 74
e 62 75
e 62 77
e 62 78
e 62 82
e 62 88
e 62 92
e 62 105
e 62 112
e 62 115
e 62 116
e 62 127
e 62 146
e 62 158
e 62 161
e 62 165
e 62 169
e 62 175
e 62 185
e 62 187
e 62 188
e 62 189
e 62 192
e 63 64
e 63 65
e 63 67
e 63 68
e 63 81
e 63 82
e 63 85
e 63 91
e 63 95
e 63 96
e 63 99
e 63 101
e 63 103
e 63 109
e 63 113
e 63 115
e 63 122
e 63 124
e 63 125
e 63 127
e 63 129
e 63 132
e 63 133
e 63 148
e 63 150
e 63 165
e 63 167
e 63 177
e 63 185
e 63 188
e 63 189
e 63 194
e 63 195
e 63 199
e 64 66
e 64 72
e 64 78
e 64 87
e 64 89
e 64 92
e 64 95
e 64 96
e 64 98
e 64 103
e 64 106
e 64 109
e 64 123
e 64 126
e 64 131
e 64 135
e 64 137
e 64 149
e 64 155
e 64 157
e 64 166
e 64 168
e 64 171
e 64 177
e 64 185
e 64 187
e 64 193
e 65 69
e 65 71
e 65 93
e 65 100
e 65 101
e 65 103
e 65 104
e 65 105
e 65 112
e 65 118
e 65 130
e 65 131
e 65 132
e 65 135
e 65 136
e 65 145
e 65 151
e 65 154
e 65 157
e 65 178
e 65 179
e 65 181
e 65 182
e 65 191
e 65 192
e 65 194
e 65 200
e 66 71
e 66 72
e 66 73
e 66 85
e 66 92
e 66 93
e 66 103
e 66 113
e 66 128
e 66 132
e 66 137
e 66 138
e 66 140
e 66 142
e 66 145
e 66 154
e 66 161
e 66 163
e 66 166
e 66 168
e 66 171
e 66 172
e 66 178
e 66 190
e 66 195
e 67 69
e 67 72
e 67 80
e 67 82
e 67 85
e 67 86
e 67 106
e 67 109
e 67 112
e 67 115
e 67 121
e 67 128
e 67 132
e 67 137
e 67 138
e 67 139
e 67 143
e 67 145
e 67 146
e 67 147
e 67 148
e 67 149
e 67 151
e 67 154
e 67 155
e 67 156
e 67 162
e 67 165
e 67 170
e 67 172
e 67 184
e 67 188
e 67 196
e 67 197
e 68 71
e 68 77
e 68 78
e 68 94
e 68 100
e 68 104
e 68 105
e 68 106
e 68 111
e 68 123
e 68 131
e 68 135
e 68 137
e 68 147
e 68 148
e 68 151
e 68 152
e 68 153
e 68 160
e 68 162
e 68 170
e 68 177
e 68 178
e 68 179
e 68 184
e 68 191
e 68 196
e 68 198
e 69 74
e 69 75
e 69 77
e 69 93
e 69 98
e 69 106
e 69 109
e 69 116
e 69 122
e 69 126
e 69 127
e 69 131
e 69 132
e 69 143
e 69 145
e 69 151
e 69 156
e 69 159
e 69 163
e 69 173
e 69 175
e 69 176
e 69 177
e 69 180
e 69 184
e 69 193
e 70 72
e 70 73
e 70 75
e 70 76
e 70 82
e 70 85
e 70 88
e 70 89
e 70 91
e 70 93
e 70 96
e 70 100
e 70 101
e 70 106
e 70 107
e 70 115
e 70 121
e 70 124
e 70 129
e 70 136
e 70 141
e 70 147
e 70 159
e 70 163
e 70 164
e 70 168
e 70 172
e 70 174
e 70 175
e 70 176
e 70 178
e 70 180
e 70 182
e 70 184
e 70 187
e 70 193
e 70 194
e 70 195
e 70 199
e 70 200
e 71 76
e 71 80
e 71 88
e 71 97
e 71 100
e 71 106
e 71 107
e 71 110
e 71 111
e 71 116
e 71 119
e 71 130
e 71 131
e 71 132
e 71 135
e 71 140
e 71 145
e 71 150
e 71 151
e 71 162
e 71 163
e 71 165
e 71 172
e 71 175
e 71 181
e 71 184
e 71 195
e 71 197
e 72 84
e 72 89
e 72 95
e 72 99
e 72 100
e 72 101
e 72 104
e 72 111
e 72 113
e 72 115
e 72 117
e 72 119
e 72 130
e 72 132
e 72 134
e 72 136
e 72 146
e 72 147
e 72 149
e 72 154
e 72 155
e 72 157
e 72 168
e 72 173
e 72 185
e 72 186
e 72 190
e 72 194
e 72 195
e 73 96
e 73 98
e 73 102
e 73 112
e 73 117
e 73 124
e 73 128
e 73 139
e 73 142
e 73 147
e 73 152
e 73 157
e 73 158
e 73 159
e 73 165
e 73 174
e 73 178
e 73 182
e 73 184
e 73 185
e 73 186
e 73 192
e 73 198
e 73 199
e 73 200
e 74 76
e 74 79
e 74 81
e 74 83
e 74 105
e 74 108
e 74 117
e 74 127
e 74 128
e 74 149
e 74 162
e 74 163
e 74 168
e 74 171
e 74 176
e 74 177
e 74 181
e 74 187
e 74 188
e 74 196
e 74 199
e 75 77
e 75 78
e 75 79
e 75 83
e 75 88
e 75 89
e 75 94
e 75 95
e 75 98
e 75 99
e 75 101
e 75 105
e 75 110
e 75 111
e 75 116
e 75 119
e 75 122
e 75 132
e 75 141
e 75 148
e 75 149
e 75 167
e 75 170
e 75 171
e 75 172
e 75 173
e 75 174
e 75 182
e 75 183
e 75 197
e 75 198
e 76 83
e 76 98
e 76 99
e 76 100
e 76 101
e 76 108
e 76 109
e 76 114
e 76 119
e 76 120
e 76 121
e 76 135
e 76 152
e 76 154
e 76 157
e 76 162
e 76 167
e 76 181
e 77 82
e 77 90
e 77 94
e 77 100
e 77 101
e 77 105
e 77 115
e 77 117
e 77 118
e 77 125
e 77 129
e 77 130
e 77 140
e 77 141
e 77 144
e 77 148
e 77 149
e 77 150
e 77 162
e 77 164
e 77 172
e 77 175
e 77 179
e 77 186
e 77 196
e 77 199
e 78 81
e 78 82
e 78 87
e 78 90
e 78 93
e 78 99
e 78 101
e 78 104
e 78 108
e 78 112
e 78 121
e 78 123
e 78 125
e 78 127
e 78 129
e 78 139
e 78 140
e 78 147
e 78 157
e 78 159
e 78 172
e 78 184
e 78 189
e 78 192
e 78 193
e 79 103
e 79 118
e 79 125
e 79 130
e 79 139
e 79 140
e 79 141
e 79 151
e 79 155
e 79 157
e 79 166
e 79 168
e 79 171
e 79 177
e 79 181
e 79 188
e 79 189
e 79 192
e 79 195
e 80 87
e 80 99
e 80 100
e 80 116
e 80 117
e 80 123
e 80 126
e 80 131
e 80 132
e 80 135
e 80 141
e 80 166
e 80 167
e 80 170
e 80 171
e 80 172
e 80 174
e 80 178
e 80 179
e 80 180
e 80 182
e 80 185
e 80 189
e 80 196
e 81 95
e 81 99
e 81 108
e 81 110
e 81 116
e 81 120
e 81 123
e 81 130
e 81 131
e 81 137
e 81 140
e 81 144
e 81 146
e 81 151
e 81 155
e 81 163
e 81 164
e 81 170
e 81 172
e 81 174
e 81 176
e 81 178
e 81 179
e 81 182
e 81 189
e 81 192
e 82 86
e 82 92
e 82 93
e 82 97
e 82 99
e 82 105
e 82 109
e 82 115
e 82 116
e 82 117
e 82 119
e 82 122
e 82 123
e 82 125
e 82 127
e 82 128
e 82 137
e 82 140
e 82 142
e 82 144
e 82 149
e 82 156
e 82 157
e 82 174
e 82 175
e 82 184
e 82 187
e 82 199
e 82 200
e 83 85
e 83 88
e 83 93
e 83 96
e 83 107
e 83 131
e 83 136
e 83 144
e 83 145
e 83 151
e 83 152
e 83 160
e 83 161
e 83 164
e 83 176
e 83 178
e 83 182
e 83 193
e 84 85
e 84 87
e 84 96
e 84 100
e 84 107
e 84 114
e 84 122
e 84 125
e 84 126
e 84 127
e 84 155
e 84 158
e 84 159
e 84 161
e 84 163
e 84 165
e 84 166
e 84 169
e 84 172
e 84 176
e 84 178
e 84 179
e 84 185
e 84 190
e 84 191
e 85 87
e 85 91
e 85 92
e 85 102
e 85 103
e 85 104
e 85 105
e 85 108
e 85 110
e 85 111
e 85 116
e 85 123
e 85 124
e 85 141
e 85 142
e 85 143
e 85 144
e 85 145
e 85 155
e 85 157
e 85 158
e 85 159
e 85 160
e 85 162
e 85 166
e 85 167
e 85 171
e 85 178
e 85 179
e 85 182
e 85 186
e 85 188
e 85 190
e 85 194
e 85 195
e 85 196
e 86 87
e 86 88
e 86 97
e 86 99
e 86 104
e 86 105
e 86 106
e 86 107
e 86 113
e 86 114
e 86 116
e 86 127
e 86 129
e 86 131
e 86 133
e 86 137
e 86 162
e 86 163
e 86 164
e 86 167
e 86 170
e 86 175
e 86 177
e 86 179
e 86 180
e 86 181
e 86 183
e 86 193
e 86 197
e 87 92
e 87 99
e 87 103
e 87 104
e 87 111
e 87 121
e 87 122
e 87 124
e 87 127
e 87 128
e 87 138
e 87 141
e 87 142
e 87 143
e 87 150
e 87 151
e 87 160
e 87 165
e 87 172
e 87 179
e 87 193
e 87 196
e 87 199
e 88 90
e 88 95
e 88 99
e 88 101
e 88 102
e 88 107
e 88 110
e 88 111
e 88 117
e 88 127
e 88 131
e 88 132
e 88 134
e 88 135
e 88 138
e 88 142
e 88 145
e 88 154
e 88 162
e 88 167
e 88 169
e 88 171
e 88 172
e 88 176
e 88 187
e 88 192
e 88 195
e 88 197
e 89 90
e 89 92
e 89 98
e 89 107
e 89 111
e 89 112
e 89 119
e 89 126
e 89 127
e 89 131
e 89 133
e 89 139
e 89 140
e 89 141
e 89 157
e 89 160
e 89 162
e 89 164
e 89 168
e 89 171
e 89 172
e 89 175
e 89 176
e 89 179
e 89 184
e 89 185
e 89 187
e 89 195
e 89 196
e 89 198
e 90 91
e 90 100
e 90 101
e 90 102
e 90 112
e 90 120
e 90 123
e 90 126
e 90 137
e 90 138
e 90 141
e 90 144
e 90 146
e 90 150
e 90 155
e 90 159
e 90 161
e 90 165
e 90 170
e 90 186
e 90 197
e 91 92
e 91 107
e 91 108
e 91 114
e 91 116
e 91 121
e 91 129
e 91 130
e 91 136
e 91 139
e 91 159
e 91 160
e 91 162
e 91 164
e 91 166
e 91 172
e 91 173
e 91 182
e 91 184
e 92 99
e 92 100
e 92 103
e 92 127
e 92 149
e 92 151
e 92 155
e 92 156
e 92 158
e 92 164
e 92 171
e 92 175
e 92 179
e 92 181
e 92 182
e 92 184
e 92 188
e 92 198
e 93 94
e 93 97
e 93 98
e 93 102
e 93 116
e 93 126
e 93 133
e 93 139
e 93 143
e 93 144
e 93 161
e 93 162
e 93 167
e 93 180
e 93 184
e 93 190
e 93 191
e 93 194
e 93 198
e 93 200
e 94 97
e 94 103
e 94 106
e 94 107
e 94 111
e 94 112
e 94 116
e 94 128
e 94 129
e 94 131
e 94 133
e 94 135
e 94 142
e 94 147
e 94 152
e 94 153
e 94 155
e 94 156
e 94 157
e 94 158
e 94 162
e 94 172
e 94 176
e 94 188
e 94 190
e 94 194
e 94 199
e 95 99
e 95 101
e 95 107
e 95 115
e 95 116
e 95 121
e 95 123
e 95 127
e 95 142
e 95 145
e 95 146
e 95 166
e 95 169
e 95 173
e 95 176
e 95 182
e 95 183
e 95 190
e 95 194
e 95 199
e 96 101
e 96 104
e 96 105
e 96 106
e 96 113
e 96 117
e 96 130
e 96 131
e 96 132
e 96 138
e 96 142
e 96 144
e 96 147
e 96 154
e 96 156
e 96 157
e 96 162
e 96 167
e 96 170
e 96 173
e 96 174
e 96 176
e 96 180
e 96 181
e 96 186
e 96 194
e 96 198
e 97 102
e 97 103
e 97 122
e 97 131
e 97 132
e 97 133
e 97 136
e 97 153
e 97 157
e 97 158
e 97 160
e 97 161
e 97 171
e 97 176
e 97 177
e 97 178
e 97 190
e 97 192
e 97 194
e 98 103
e 98 108
e 98 115
e 98 124
e 98 125
e 98 138
e 98 146
e 98 149
e 98 158
e 98 160
e 98 161
e 98 163
e 98 166
e 98 174
e 98 181
e 98 186
e 98 187
e 98 191
e 98 193
e 98 200
e 99 110
e 99 114
e 99 122
e 99 130
e 99 138
e 99 141
e 99 142
e 99 146
e 99 157
e 99 164
e 99 168
e 99 172
e 99 179
e 99 184
e 99 189
e 99 197
e 100 102
e 100 104
e 100 109
e 100 111
e 100 116
e 100 120
e 100 130
e 100 143
e 100 149
e 100 151
e 100 158
e 100 159
e 100 170
e 100 172
e 100 178
e 100 180
e 100 183
e 100 184
e 100 188
e 100 191
e 100 193
e 100 198
e 101 111
e 101 112
e 101 113
e 101 115
e 101 130
e 101 133
e 101 144
e 101 148
e 101 159
e 101 165
e 101 167
e 101 168
e 101 170
e 101 174
e 101 175
e 101 177
e 101 188
e 101 189
e 102 109
e 102 120
e 102 126
e 102 130
e 102 136
e 102 141
e 102 152
e 102 155
e 102 162
e 102 166
e 102 168
e 102 170
e 102 171
e 102 173
e 102 176
e 102 177
e 102 184
e 102 185
e 102 193
e 102 200
e 103 104
e 103 105
e 103 118
e 103 120
e 103 121
e 103 125
e 103 130
e 103 141
e 103 146
e 103 148
e 103 157
e 103 159
e 103 161
e 103 167
e 103 168
e 103 175
e 103 176
e 103 180
e 103 186
e 103 188
e 103 190
e 103 191
e 103 192
e 103 193
e 103 200
e 104 108
e 104 110
e 104 115
e 104 123
e 104 124
e 104 132
e 104 133
e 104 138
e 104 141
e 104 147
e 104 151
e 104 156
e 104 157
e 104 158
e 104 159
e 104 160
e 104 161
e 104 164
e 104 168
e 104 178
e 104 190
e 104 199
e 105 125
e 105 134
e 105 150
e 105 156
e 105 158
e 105 169
e 105 170
e 105 173
e 105 179
e 105 181
e 105 183
e 105 190
e 105 191
e 106 107
e 106 109
e 106 126
e 106 132
e 106 141
e 106 143
e 106 153
e 106 154
e 106 155
e 106 162
e 106 164
e 106 165
e 106 178
e 106 187
e 106 194
e 106 198
e 106 199
e 107 115
e 107 116
e 107 123
e 107 127
e 107 129
e 107 130
e 107 141
e 107 142
e 107 143
e 107 146
e 107 151
e 107 152
e 107 159
e 107 164
e 107 171
e 107 172
e 107 176
e 107 180
e 107 191
e 107 197
e 107 200
e 108 112
e 108 120
e 108 132
e 108 135
e 108 136
e 108 140
e 108 146
e 108 149
e 108 157
e 108 161
e 108 166
e 108 168
e 108 169
e 108 175
e 108 178
e 108 181
e 108 185
e 108 188
e 108 189
e 109 115
e 109 116
e 109 117
e 109 124
e 109 128
e 109 140
e 109 142
e 109 144
e 109 145
e 109 148
e 109 154
e 109 156
e 109 173
e 109 174
e 109 177
e 109 178
e 109 179
e 109 181
e 109 185
e 109 189
e 110 112
e 110 118
e 110 120
e 110 122
e 110 125
e 110 126
e 110 128
e 110 129
e 110 138
e 110 140
e 110 142
e 110 144
e 110 151
e 110 154
e 110 157
e 110 158
e 110 162
e 110 166
e 110 167
e 110 178
e 110 179
e 110 182
e 110 187
e 110 197
e 110 199
e 111 117
e 111 119
e 111 128
e 111 130
e 111 135
e 111 138
e 111 148
e 111 149
e 111 153
e 111 164
e 111 169
e 111 175
e 111 177
e 111 189
e 111 192
e 111 194
e 111 197
e 111 198
e 112 122
e 112 126
e 112 140
e 112 142
e 112 144
e 112 146
e 112 147
e 112 149
e 112 150
e 112 151
e 112 152
e 112 157
e 112 158
e 112 172
e 112 173
e 112 175
e 112 178
e 112 183
e 112 188
e 112 189
e 112 191
e 112 193
e 112 196
e 112 197
e 112 200
e 113 118
e 113 119
e 113 125
e 113 126
e 113 127
e 113 135
e 113 136
e 113 138
e 113 144
e 113 146
e 113 149
e 113 151
e 113 162
e 113 165
e 113 172
e 113 177
e 113 181
e 113 183
e 114 118
e 114 119
e 114 120
e 114 132
e 114 139
e 114 150
e 114 155
e 114 160
e 114 174
e 114 175
e 114 182
e 114 189
e 115 117
e 115 120
e 115 122
e 115 127
e 115 128
e 115 135
e 115 139
e 115 143
e 115 145
e 115 147
e 115 156
e 115 163
e 115 187
e 115 194
e 115 195
e 115 200
e 116 118
e 116 124
e 116 132
e 116 134
e 116 138
e 116 140
e 116 141
e 116 145
e 116 147
e 116 155
e 116 157
e 116 165
e 116 173
e 116 177
e 116 185
e 116 189
e 116 197
e 117 119
e 117 129
e 117 130
e 117 135
e 117 143
e 117 157
e 117 162
e 117 165
e 117 171
e 117 180
e 117 181
e 117 184
e 117 190
e 117 191
e 117 199
e 118 119
e 118 130
e 118 143
e 118 144
e 118 147
e 118 149
e 118 163
e 118 169
e 118 170
e 118 171
e 118 174
e 118 180
e 118 189
e 118 190
e 119 126
e 119 137
e 119 143
e 119 144
e 119 145
e 119 150
e 119 158
e 119 170
e 119 177
e 119 179
e 119 183
e 119 184
e 119 186
e 119 187
e 119 198
e 119 199
e 120 121
e 120 129
e 120 137
e 120 138
e 120 142
e 120 151
e 120 153
e 120 168
e 120 171
e 120 174
e 120 178
e 120 180
e 120 186
e 120 189
e 120 197
e 121 122
e 121 131
e 121 155
e 121 156
e 121 158
e 121 171
e 121 179
e 121 182
e 121 183
e 121 184
e 121 186
e 121 189
e 121 193
e 121 197
e 122 128
e 122 130
e 122 132
e 122 139
e 122 141
e 122 143
e 122 155
e 122 160
e 122 165
e 122 171
e 122 182
e 122 187
e 122 196
e 123 124
e 123 125
e 123 126
e 123 131
e 123 132
e 123 138
e 123 142
e 123 144
e 123 146
e 123 151
e 123 154
e 123 158
e 123 159
e 123 161
e 123 170
e 123 180
e 123 182
e 123 187
e 123 188
e 123 192
e 124 130
e 124 132
e 124 133
e 124 141
e 124 148
e 124 149
e 124 152
e 124 156
e 124 157
e 124 168
e 124 170
e 124 175
e 124 178
e 124 187
e 124 188
e 124 196
e 125 126
e 125 131
e 125 132
e 125 133
e 125 142
e 125 143
e 125 145
e 125 152
e 125 153
e 125 168
e 125 180
e 125 187
e 126 129
e 126 130
e 126 132
e 126 136
e 126 140
e 126 141
e 126 142
e 126 150
e 126 155
e 126 165
e 126 168
e 126 174
e 126 176
e 126 177
e 126 178
e 126 184
e 126 185
e 126 188
e 126 189
e 126 191
e 126 198
e 127 133
e 127 144
e 127 146
e 127 151
e 127 166
e 127 167
e 127 169
e 127 173
e 127 174
e 127 177
e 127 183
e 127 187
e 127 194
e 127 197
e 128 130
e 128 137
e 128 145
e 128 152
e 128 154
e 128 156
e 128 158
e 128 160
e 128 162
e 128 181
e 128 185
e 128 189
e 128 198
e 129 131
e 129 140
e 129 147
e 129 149
e 129 154
e 129 160
e 129 161
e 129 166
e 129 167
e 129 182
e 129 183
e 129 192
e 129 193
e 129 196
e 129 198
e 130 134
e 130 144
e 130 151
e 130 156
e 130 159
e 130 162
e 130 174
e 130 175
e 130 177
e 130 179
e 130 180
e 130 181
e 130 184
e 130 185
e 130 189
e 130 199
e 130 200
e 131 137
e 131 140
e 131 142
e 131 144
e 131 145
e 131 148
e 131 154
e 131 162
e 131 165
e 131 171
e 131 175
e 131 176
e 131 180
e 131 185
e 131 190
e 131 193
e 131 194
e 131 195
e 131 197
e 132 135
e 132 138
e 132 150
e 132 154
e 132 166
e 132 170
e 132 173
e 132 175
e 132 176
e 132 181
e 132 183
e 132 197
e 133 134
e 133 138
e 133 142
e 133 148
e 133 150
e 133 158
e 133 165
e 133 167
e 133 176
e 133 180
e 133 185
e 133 186
e 133 188
e 133 190
e 133 193
e 133 194
e 133 196
e 133 197
e 133 200
e 134 140
e 134 153
e 134 156
e 134 164
e 134 170
e 134 187
e 135 143
e 135 146
e 135 148
e 135 151
e 135 152
e 135 157
e 135 164
e 135 179
e 135 186
e 135 190
e 135 196
e 135 199
e 136 146
e 136 152
e 136 160
e 136 163
e 136 164
e 136 166
e 136 167
e 136 175
e 136 190
e 136 191
e 136 200
e 137 144
e 137 146
e 137 165
e 137 166
e 137 167
e 137 173
e 137 177
e 137 179
e 137 185
e 137 189
e 137 192
e 138 148
e 138 152
e 138 163
e 138 170
e 138 171
e 138 176
e 138 177
e 138 183
e 138 188
e 138 196
e 138 197
e 138 199
e 139 149
e 139 150
e 139 151
e 139 153
e 139 157
e 139 163
e 139 166
e 139 167
e 139 169
e 139 179
e 139 184
e 139 185
e 139 190
e 139 192
e 139 194
e 139 197
e 140 143
e 140 151
e 140 152
e 140 162
e 140 166
e 140 173
e 140 177
e 140 193
e 140 194
e 140 197
e 141 147
e 141 149
e 141 154
e 141 158
e 141 160
e 141 167
e 141 169
e 141 174
e 141 176
e 141 179
e 141 182
e 141 186
e 141 188
e 141 200
e 142 150
e 142 152
e 142 156
e 142 158
e 142 159
e 142 168
e 142 169
e 142 178
e 142 185
e 142 187
e 142 188
e 142 191
e 142 194
e 142 199
e 142 200
e 143 147
e 143 155
e 143 162
e 143 169
e 143 172
e 143 174
e 143 177
e 143 179
e 143 188
e 143 196
e 143 199
e 144 147
e 144 149
e 144 164
e 144 165
e 144 170
e 144 173
e 144 178
e 144 181
e 144 185
e 144 188
e 144 192
e 144 194
e 144 197
e 145 149
e 145 150
e 145 157
e 145 158
e 145 165
e 145 167
e 145 170
e 145 171
e 145 180
e 145 188
e 145 191
e 145 199
e 146 148
e 146 151
e 146 159
e 146 165
e 146 168
e 146 170
e 146 178
e 146 180
e 146 184
e 147 162
e 147 176
e 147 177
e 147 186
e 147 188
e 147 190
e 147 191
e 147 192
e 147 193
e 147 198
e 147 200
e 148 152
e 148 155
e 148 166
e 148 167
e 148 178
e 148 182
e 148 183
e 148 184
e 148 194
e 149 152
e 149 153
e 149 154
e 149 158
e 149 168
e 149 173
e 149 181
e 149 186
e 149 191
e 149 192
e 149 195
e 149 196
e 150 152
e 150 157
e 150 162
e 150 169
e 150 176
e 150 178
e 150 180
e 150 181
e 150 184
e 150 185
e 150 190
e 150 195
e 151 167
e 151 173
e 151 175
e 151 188
e 151 190
e 151 198
e 151 199
e 152 155
e 152 177
e 152 178
e 152 180
e 152 189
e 152 197
e 153 171
e 153 175
e 153 191
e 153 194
e 153 199
e 154 159
e 154 167
e 154 171
e 154 174
e 154 175
e 154 176
e 154 178
e 154 186
e 154 189
e 154 191
e 154 193
e 154 196
e 154 199
e 155 161
e 155 168
e 155 173
e 155 174
e 155 189
e 156 170
e 156 175
e 156 176
e 156 183
e 156 188
e 156 200
e 157 160
e 157 166
e 157 167
e 157 168
e 157 180
e 157 182
e 157 183
e 157 186
e 157 187
e 157 191
e 157 199
e 158 159
e 158 165
e 158 170
e 158 174
e 158 176
e 158 185
e 158 186
e 158 199
e 159 164
e 159 169
e 159 170
e 159 171
e 159 182
e 159 187
e 159 192
e 159 196
e 160 165
e 160 181
e 160 184
e 160 197
e 160 199
e 161 162
e 161 164
e 161 165
e 161 172
e 161 175
e 161 183
e 161 184
e 161 185
e 161 193
e 161 197
e 162 170
e 162 178
e 162 179
e 162 191
e 162 193
e 162 198
e 163 167
e 163 171
e 163 174
e 163 175
e 163 176
e 163 180
e 163 183
e 163 190
e 163 192
e 164 165
e 164 167
e 164 170
e 164 181
e 164 184
e 164 188
e 164 193
e 164 194
e 164 196
e 164 198
e 164 199
e 165 174
e 165 176
e 165 178
e 165 181
e 165 182
e 165 187
e 165 195
e 165 198
e 166 167
e 166 169
e 166 172
e 166 175
e 166 184
e 166 185
e 166 190
e 166 194
e 166 195
e 166 196
e 166 200
e 167 170
e 167 175
e 167 176
e 167 194
e 167 195
e 167 197
e 168 175
e 168 177
e 168 178
e 168 179
e 168 180
e 168 193
e 169 180
e 169 182
e 169 186
e 169 188
e 170 175
e 170 176
e 170 182
e 170 184
e 170 194
e 170 197
e 171 174
e 171 175
e 171 176
e 171 180
e 171 189
e 171 191
e 171 195
e 171 196
e 171 197
e 172 175
e 172 176
e 172 178
e 172 180
e 172 182
e 172 197
e 173 179
e 173 184
e 173 187
e 173 191
e 173 194
e 173 197
e 174 177
e 174 188
e 174 192
e 174 196
e 175 177
e 175 180
e 175 189
e 175 198
e 176 184
e 176 188
e 177 183
e 177 189
e 177 190
e 177 192
e 178 182
e 178 184
e 178 187
e 178 191
e 178 194
e 178 198
e 179 180
e 179 184
e 179 189
e 179 194
e 180 183
e 180 184
e 180 185
e 180 191
e 180 192
e 180 194
e 180 199
e 181 183
e 181 189
e 181 191
e 181 194
e 181 199
e 182 184
e 182 185
e 183 186
e 183 187
e 183 195
e 183 196
e 183 200
e 184 185
e 184 187
e 184 189
e 184 194
e 185 190
e 185 191
e 185 194
e 185 196
e 187 193
e 187 195
e 187 197
e 187 200
e 188 191
e 188 196
e 190 191
e 190 194
e 190 200
e 191 195
e 191 198
e 192 194
e 192 199
e 192 200
e 193 195
e 195 199
e 195 200
e 196 197
e 196 199
e 198 199
